FEATURES = {apiClient, apiBuilder, apiTesting, apiMockServer, apiMonitoringCalls, postmanAPI, integrations, nativeGitSupport, staticIpAddresses, publicApiDocumentation, privateApiDocumentation, imageEmbedding, customDomains, workspaces, privateWorkspaces, partnerWorkspaces, privateApiNetwork, reportingAndAnalytics, rolesAndPermissions, googleSSO, otherProvidersSingleSignOn, samlSingleSignOn, userProvisioning, userGroups, domainCapture, recoverDeletedCollections, auditLogs, auditLogsAPI, securityTokenScanner, superAdminRole, deploymentControl, owaspRuleset, customRulesBuilder, requestValidationEngine, schemaValidationEngine, remediationGuidance, customerSuccess, emailSupport, priorityEmailSupport, paymentOptions};
USAGE_LIMITS = {callsToPostmanApi, numberOfIntegrations, imageEmbeddingLimit, customDomainsLimit, recoverDeletedCollectionsThreshold, monitoringCallsFixedLimit, monitoringCallsMonthlyLimit, mockServerCallsFixedLimit, mockServerCallsMonthlyLimit};
PLANS = {FREE, BASIC, PROFESSIONAL, ENTERPRISE};
ADDONS = {monitoringPayAsYouGo, monitoringMonthly, mockServersPayAsYouGo, mockServersMonthly, customDomains};

plans_prices = [0.0,15.0,36.0,null];
addons_prices = [0.75,20.0,0.75,20.0,10.0];

plans_features = array2d(PLANS, FEATURES, [
    % FREE
    1,0,1,0,0,1,1,0,0,1,1,1,0,1,0,0,0,0,0,0,0,0,0,1,0,0,0,0,0,0,0,0,0,0,0,0,0,0,1,0,1,
    % BASIC
    1,0,1,0,0,1,1,0,1,1,1,1,1,1,0,0,0,0,0,0,0,0,0,1,0,0,0,0,0,0,0,0,0,0,0,0,0,0,1,0,1,
    % PROFESSIONAL
    1,0,1,0,0,1,1,1,1,1,1,1,1,1,1,0,0,1,1,1,1,1,0,1,0,0,0,0,0,0,0,0,0,0,0,0,0,0,1,0,1,
    % ENTERPRISE
    1,0,1,0,0,1,1,1,1,1,1,1,1,1,1,1,1,1,1,1,1,1,1,1,1,1,1,1,1,1,1,1,1,1,1,1,1,1,1,1,1
]);
plans_usage_limits = array2d(PLANS, USAGE_LIMITS, [
    % FREE
    1000,5,100,0,1,0,0,0,0,
    % BASIC
    10000,10,100,1,30,0,0,0,0,
    % PROFESSIONAL
    100000,50,100,5,90,0,0,0,0,
    % ENTERPRISE
    1000000,100,100,25,90,0,0,0,0
]);

linked_features = array2d(USAGE_LIMITS, FEATURES, [
    % callsToPostmanApi
    0,0,0,0,0,1,0,0,0,0,0,0,0,0,0,0,0,0,0,0,0,0,0,0,0,0,0,0,0,0,0,0,0,0,0,0,0,0,0,0,0,
    % numberOfIntegrations
    0,0,0,0,0,0,1,0,0,0,0,0,0,0,0,0,0,0,0,0,0,0,0,0,0,0,0,0,0,0,0,0,0,0,0,0,0,0,0,0,0,
    % imageEmbeddingLimit
    0,0,0,0,0,0,0,0,0,0,0,1,0,0,0,0,0,0,0,0,0,0,0,0,0,0,0,0,0,0,0,0,0,0,0,0,0,0,0,0,0,
    % customDomainsLimit
    0,0,0,0,0,0,0,0,0,0,0,0,1,0,0,0,0,0,0,0,0,0,0,0,0,0,0,0,0,0,0,0,0,0,0,0,0,0,0,0,0,
    % recoverDeletedCollectionsThreshold
    0,0,0,0,0,0,0,0,0,0,0,0,0,0,0,0,0,0,0,0,0,0,0,0,1,0,0,0,0,0,0,0,0,0,0,0,0,0,0,0,0,
    % monitoringCallsFixedLimit
    0,0,0,0,1,0,0,0,0,0,0,0,0,0,0,0,0,0,0,0,0,0,0,0,0,0,0,0,0,0,0,0,0,0,0,0,0,0,0,0,0,
    % monitoringCallsMonthlyLimit
    0,0,0,0,1,0,0,0,0,0,0,0,0,0,0,0,0,0,0,0,0,0,0,0,0,0,0,0,0,0,0,0,0,0,0,0,0,0,0,0,0,
    % mockServerCallsFixedLimit
    0,0,0,1,0,0,0,0,0,0,0,0,0,0,0,0,0,0,0,0,0,0,0,0,0,0,0,0,0,0,0,0,0,0,0,0,0,0,0,0,0,
    % mockServerCallsMonthlyLimit
    0,0,0,1,0,0,0,0,0,0,0,0,0,0,0,0,0,0,0,0,0,0,0,0,0,0,0,0,0,0,0,0,0,0,0,0,0,0,0,0,0
]);

addons_features = array2d(ADDONS, FEATURES, [
    % monitoringPayAsYouGo
    0,0,0,0,1,0,0,0,0,0,0,0,0,0,0,0,0,0,0,0,0,0,0,0,0,0,0,0,0,0,0,0,0,0,0,0,0,0,0,0,0,
    % monitoringMonthly
    0,0,0,0,1,0,0,0,0,0,0,0,0,0,0,0,0,0,0,0,0,0,0,0,0,0,0,0,0,0,0,0,0,0,0,0,0,0,0,0,0,
    % mockServersPayAsYouGo
    0,0,0,1,0,0,0,0,0,0,0,0,0,0,0,0,0,0,0,0,0,0,0,0,0,0,0,0,0,0,0,0,0,0,0,0,0,0,0,0,0,
    % mockServersMonthly
    0,0,0,1,0,0,0,0,0,0,0,0,0,0,0,0,0,0,0,0,0,0,0,0,0,0,0,0,0,0,0,0,0,0,0,0,0,0,0,0,0,
    % customDomains
    0,0,0,0,0,0,0,0,0,0,0,0,1,0,0,0,0,0,0,0,0,0,0,0,0,0,0,0,0,0,0,0,0,0,0,0,0,0,0,0,0
]);
addons_usage_limits = array2d(ADDONS, USAGE_LIMITS, [
    % monitoringPayAsYouGo
    0,0,0,0,0,1000,0,0,0,
    % monitoringMonthly
    0,0,0,0,0,0,50000,0,0,
    % mockServersPayAsYouGo
    0,0,0,0,0,0,0,1000,0,
    % mockServersMonthly
    0,0,0,0,0,0,0,0,50000,
    % customDomains
    0,0,0,0,0,0,0,0,0
]);
addons_usage_limits_extensions = array2d(ADDONS, USAGE_LIMITS, [
    % monitoringPayAsYouGo
    0,0,0,0,0,0,0,0,0,
    % monitoringMonthly
    0,0,0,0,0,0,0,0,0,
    % mockServersPayAsYouGo
    0,0,0,0,0,0,0,0,0,
    % mockServersMonthly
    0,0,0,0,0,0,0,0,0,
    % customDomains
    0,0,0,1,0,0,0,0,0
]);
addons_available_for = array2d(ADDONS, PLANS, [
    % monitoringPayAsYouGo
    1,1,1,1,
    % monitoringMonthly
    1,1,1,1,
    % mockServersPayAsYouGo
    1,1,1,1,
    % mockServersMonthly
    1,1,1,1,
    % customDomains
    0,1,1,1
]);

addons_depends_on = array2d(ADDONS, ADDONS, [
    % monitoringPayAsYouGo
    0,0,0,0,0,
    % monitoringMonthly
    0,0,0,0,0,
    % mockServersPayAsYouGo
    0,0,0,0,0,
    % mockServersMonthly
    0,0,0,0,0,
    % customDomains
    0,0,0,0,0
]);